p cep 129 3882
1 6
1 10
1 12
1 16
1 19
1 24
1 36
1 41
1 45
1 49
1 50
1 51
1 57
1 58
1 62
1 63
1 64
1 83
1 90
1 94
1 95
1 108
1 127
2 4
2 5
2 8
2 9
2 13
2 14
2 15
2 17
2 18
2 21
2 22
2 27
2 28
2 29
2 31
2 32
2 34
2 37
2 38
2 39
2 40
2 42
2 47
2 52
2 54
2 55
2 61
2 65
2 66
2 67
2 68
2 69
2 71
2 72
2 73
2 74
2 75
2 76
2 78
2 79
2 80
2 87
2 89
2 91
2 92
2 96
2 97
2 98
2 99
2 101
2 103
2 104
2 105
2 106
2 107
2 109
2 110
2 111
2 112
2 114
2 115
2 116
2 117
2 118
2 120
2 121
2 123
2 126
2 128
3 11
3 13
3 17
3 29
3 31
3 54
3 68
3 69
3 71
3 72
3 73
3 76
3 79
3 82
3 96
3 101
3 114
3 115
3 117
3 125
3 128
4 5
4 7
4 8
4 9
4 13
4 14
4 15
4 17
4 18
4 21
4 22
4 25
4 27
4 28
4 29
4 30
4 31
4 32
4 33
4 34
4 37
4 38
4 39
4 40
4 42
4 43
4 47
4 52
4 54
4 55
4 59
4 60
4 61
4 65
4 66
4 67
4 68
4 69
4 71
4 72
4 73
4 74
4 75
4 76
4 78
4 79
4 80
4 85
4 86
4 87
4 88
4 89
4 91
4 92
4 93
4 96
4 97
4 98
4 99
4 101
4 103
4 104
4 105
4 106
4 107
4 109
4 110
4 111
4 112
4 114
4 115
4 116
4 117
4 118
4 119
4 120
4 121
4 123
4 126
4 128
5 7
5 8
5 9
5 13
5 14
5 15
5 17
5 18
5 21
5 22
5 25
5 27
5 28
5 29
5 30
5 31
5 32
5 33
5 34
5 37
5 38
5 39
5 40
5 42
5 43
5 47
5 52
5 54
5 55
5 59
5 60
5 61
5 65
5 66
5 67
5 68
5 69
5 71
5 72
5 73
5 74
5 75
5 76
5 78
5 79
5 80
5 85
5 86
5 87
5 88
5 89
5 91
5 92
5 93
5 96
5 97
5 98
5 99
5 101
5 103
5 104
5 105
5 106
5 107
5 109
5 110
5 111
5 112
5 114
5 115
5 116
5 117
5 118
5 119
5 120
5 121
5 123
5 126
5 128
6 10
6 12
6 36
6 41
6 45
6 49
6 51
6 57
6 58
6 62
6 63
6 64
6 94
6 95
6 102
6 108
6 113
6 127
6 129
7 8
7 9
7 13
7 17
7 18
7 21
7 22
7 23
7 26
7 29
7 30
7 31
7 33
7 34
7 35
7 37
7 39
7 40
7 42
7 43
7 46
7 47
7 48
7 52
7 54
7 56
7 59
7 61
7 65
7 66
7 67
7 68
7 69
7 71
7 72
7 73
7 76
7 77
7 79
7 80
7 81
7 85
7 86
7 87
7 89
7 91
7 92
7 93
7 96
7 97
7 99
7 100
7 101
7 103
7 105
7 106
7 111
7 112
7 114
7 115
7 116
7 117
7 118
7 119
7 120
7 121
7 123
7 124
7 126
7 128
8 9
8 13
8 14
8 15
8 17
8 18
8 21
8 22
8 23
8 25
8 26
8 27
8 28
8 29
8 30
8 31
8 32
8 33
8 34
8 35
8 37
8 38
8 39
8 40
8 42
8 43
8 46
8 47
8 52
8 54
8 55
8 56
8 59
8 60
8 61
8 65
8 66
8 67
8 68
8 69
8 71
8 72
8 73
8 74
8 75
8 76
8 77
8 78
8 79
8 80
8 81
8 85
8 86
8 87
8 88
8 89
8 91
8 92
8 93
8 96
8 97
8 98
8 99
8 100
8 101
8 103
8 104
8 105
8 106
8 107
8 109
8 110
8 111
8 112
8 114
8 115
8 116
8 117
8 118
8 119
8 120
8 121
8 122
8 123
8 124
8 126
8 128
9 13
9 14
9 15
9 17
9 18
9 21
9 22
9 23
9 25
9 26
9 27
9 28
9 29
9 30
9 31
9 32
9 33
9 34
9 35
9 37
9 38
9 39
9 40
9 42
9 43
9 44
9 46
9 47
9 52
9 54
9 55
9 56
9 59
9 60
9 61
9 65
9 66
9 67
9 68
9 69
9 71
9 72
9 73
9 74
9 75
9 76
9 77
9 78
9 79
9 80
9 81
9 85
9 86
9 87
9 88
9 89
9 91
9 92
9 93
9 96
9 97
9 98
9 99
9 100
9 101
9 103
9 104
9 105
9 106
9 107
9 109
9 110
9 111
9 112
9 114
9 115
9 116
9 117
9 118
9 119
9 120
9 121
9 122
9 123
9 126
9 128
10 12
10 16
10 19
10 24
10 36
10 41
10 45
10 49
10 50
10 51
10 57
10 58
10 62
10 63
10 64
10 83
10 90
10 94
10 95
10 108
10 127
11 82
11 125
12 19
12 36
12 45
12 49
12 51
12 57
12 58
12 62
12 63
12 64
12 83
12 94
12 102
12 108
12 113
12 127
12 129
13 14
13 15
13 17
13 18
13 21
13 22
13 23
13 25
13 26
13 27
13 28
13 29
13 30
13 31
13 32
13 33
13 34
13 37
13 38
13 39
13 40
13 42
13 43
13 46
13 47
13 52
13 54
13 55
13 56
13 59
13 60
13 61
13 65
13 66
13 67
13 68
13 69
13 71
13 72
13 73
13 74
13 75
13 76
13 78
13 79
13 80
13 81
13 82
13 85
13 86
13 87
13 88
13 89
13 91
13 92
13 93
13 96
13 97
13 98
13 99
13 100
13 101
13 103
13 104
13 105
13 106
13 107
13 109
13 110
13 111
13 112
13 114
13 115
13 116
13 117
13 118
13 119
13 120
13 121
13 122
13 123
13 124
13 125
13 126
13 128
14 15
14 17
14 18
14 21
14 22
14 25
14 27
14 28
14 29
14 30
14 31
14 32
14 34
14 37
14 38
14 39
14 40
14 42
14 47
14 52
14 54
14 55
14 60
14 61
14 65
14 66
14 67
14 68
14 69
14 71
14 72
14 73
14 74
14 75
14 76
14 78
14 79
14 80
14 87
14 88
14 89
14 91
14 92
14 96
14 97
14 98
14 99
14 101
14 103
14 104
14 105
14 107
14 109
14 110
14 111
14 112
14 114
14 115
14 116
14 117
14 118
14 120
14 121
14 123
14 126
14 128
15 17
15 18
15 21
15 22
15 27
15 28
15 29
15 31
15 32
15 34
15 37
15 38
15 39
15 40
15 42
15 47
15 52
15 54
15 55
15 61
15 65
15 68
15 69
15 71
15 72
15 73
15 74
15 75
15 76
15 78
15 79
15 80
15 87
15 89
15 91
15 92
15 96
15 97
15 98
15 99
15 101
15 103
15 104
15 105
15 107
15 109
15 110
15 111
15 112
15 114
15 115
15 116
15 117
15 118
15 120
15 121
15 123
15 126
15 128
16 19
16 24
16 45
16 50
16 57
16 63
16 64
16 90
16 94
16 95
16 108
17 18
17 21
17 22
17 25
17 26
17 27
17 28
17 29
17 30
17 31
17 32
17 34
17 35
17 37
17 38
17 39
17 40
17 42
17 43
17 47
17 52
17 54
17 55
17 59
17 60
17 61
17 65
17 66
17 67
17 68
17 69
17 71
17 72
17 73
17 74
17 75
17 76
17 77
17 78
17 79
17 80
17 81
17 85
17 86
17 87
17 88
17 89
17 91
17 92
17 93
17 96
17 97
17 98
17 99
17 101
17 103
17 104
17 105
17 106
17 107
17 109
17 110
17 111
17 112
17 114
17 115
17 116
17 117
17 118
17 119
17 120
17 121
17 122
17 123
17 124
17 126
17 128
18 21
18 22
18 23
18 25
18 26
18 27
18 28
18 29
18 30
18 31
18 32
18 33
18 34
18 37
18 38
18 39
18 40
18 42
18 43
18 46
18 47
18 52
18 54
18 55
18 56
18 59
18 60
18 61
18 65
18 66
18 67
18 68
18 69
18 71
18 72
18 73
18 74
18 75
18 76
18 78
18 79
18 80
18 81
18 85
18 86
18 87
18 88
18 89
18 91
18 92
18 93
18 96
18 97
18 98
18 99
18 101
18 103
18 104
18 105
18 106
18 107
18 109
18 110
18 111
18 112
18 114
18 115
18 116
18 117
18 118
18 119
18 120
18 121
18 123
18 124
18 126
18 128
19 24
19 31
19 41
19 45
19 49
19 50
19 57
19 63
19 64
19 83
19 90
19 94
19 95
19 108
20 35
20 70
21 22
21 23
21 25
21 26
21 27
21 28
21 29
21 30
21 31
21 32
21 33
21 34
21 35
21 37
21 38
21 39
21 40
21 42
21 43
21 44
21 46
21 47
21 48
21 52
21 54
21 55
21 56
21 59
21 61
21 65
21 66
21 67
21 68
21 69
21 71
21 72
21 73
21 74
21 75
21 76
21 77
21 78
21 79
21 80
21 81
21 85
21 86
21 87
21 88
21 89
21 91
21 92
21 93
21 96
21 97
21 98
21 99
21 100
21 101
21 103
21 104
21 105
21 106
21 107
21 109
21 110
21 111
21 112
21 114
21 115
21 116
21 117
21 118
21 119
21 120
21 121
21 122
21 123
21 124
21 126
21 128
22 23
22 25
22 26
22 27
22 28
22 29
22 30
22 31
22 32
22 33
22 34
22 37
22 38
22 39
22 40
22 42
22 43
22 46
22 47
22 52
22 54
22 55
22 56
22 59
22 60
22 61
22 64
22 65
22 66
22 67
22 68
22 69
22 71
22 72
22 73
22 74
22 75
22 76
22 78
22 79
22 80
22 81
22 82
22 85
22 86
22 87
22 88
22 89
22 91
22 92
22 93
22 96
22 97
22 98
22 99
22 100
22 101
22 103
22 104
22 105
22 106
22 107
22 109
22 110
22 111
22 112
22 114
22 115
22 116
22 117
22 118
22 119
22 120
22 121
22 122
22 123
22 124
22 125
22 126
22 128
23 26
23 30
23 31
23 33
23 40
23 43
23 46
23 47
23 59
23 66
23 67
23 68
23 79
23 80
23 81
23 85
23 86
23 87
23 89
23 93
23 96
23 97
23 100
23 101
23 103
23 105
23 106
23 111
23 115
23 119
23 121
23 122
23 124
23 128
24 45
24 50
24 57
24 63
24 64
24 90
24 94
24 95
24 108
24 127
25 27
25 29
25 30
25 31
25 34
25 37
25 38
25 39
25 40
25 42
25 47
25 52
25 54
25 55
25 59
25 60
25 61
25 65
25 66
25 67
25 68
25 69
25 71
25 72
25 73
25 75
25 76
25 78
25 79
25 80
25 87
25 88
25 89
25 91
25 92
25 96
25 97
25 99
25 101
25 103
25 104
25 105
25 109
25 110
25 112
25 114
25 115
25 116
25 117
25 118
25 120
25 121
25 123
25 126
25 128
26 29
26 30
26 31
26 33
26 35
26 37
26 39
26 40
26 42
26 43
26 46
26 47
26 48
26 54
26 56
26 59
26 61
26 65
26 66
26 67
26 68
26 69
26 71
26 72
26 73
26 76
26 77
26 78
26 80
26 81
26 85
26 86
26 87
26 89
26 91
26 93
26 96
26 97
26 100
26 101
26 103
26 105
26 106
26 111
26 112
26 114
26 115
26 117
26 118
26 119
26 121
26 124
26 128
27 28
27 29
27 31
27 32
27 34
27 37
27 38
27 39
27 40
27 42
27 47
27 52
27 54
27 55
27 60
27 61
27 65
27 66
27 67
27 68
27 69
27 71
27 72
27 73
27 74
27 75
27 76
27 78
27 79
27 80
27 87
27 88
27 89
27 91
27 92
27 96
27 97
27 98
27 99
27 101
27 103
27 104
27 105
27 106
27 107
27 109
27 110
27 111
27 112
27 114
27 115
27 116
27 117
27 118
27 120
27 121
27 123
27 126
27 128
28 29
28 31
28 32
28 34
28 37
28 38
28 39
28 40
28 42
28 43
28 47
28 52
28 54
28 55
28 61
28 65
28 68
28 69
28 71
28 72
28 73
28 74
28 75
28 76
28 78
28 79
28 80
28 87
28 89
28 91
28 92
28 96
28 97
28 98
28 99
28 101
28 103
28 104
28 105
28 107
28 109
28 110
28 111
28 112
28 114
28 115
28 116
28 117
28 118
28 120
28 121
28 123
28 126
28 128
29 30
29 31
29 32
29 33
29 34
29 37
29 38
29 39
29 40
29 42
29 43
29 47
29 52
29 54
29 55
29 56
29 59
29 60
29 61
29 65
29 66
29 67
29 68
29 69
29 71
29 72
29 73
29 74
29 75
29 76
29 78
29 79
29 80
29 81
29 85
29 86
29 87
29 88
29 89
29 91
29 92
29 93
29 96
29 97
29 98
29 99
29 101
29 103
29 104
29 105
29 106
29 107
29 109
29 110
29 111
29 112
29 114
29 115
29 116
29 117
29 118
29 119
29 120
29 121
29 122
29 123
29 124
29 126
29 128
30 31
30 32
30 33
30 34
30 35
30 37
30 38
30 39
30 40
30 42
30 43
30 44
30 46
30 47
30 52
30 54
30 55
30 59
30 61
30 65
30 66
30 67
30 68
30 69
30 71
30 72
30 73
30 75
30 76
30 77
30 78
30 79
30 80
30 81
30 85
30 86
30 87
30 88
30 89
30 91
30 92
30 93
30 96
30 97
30 99
30 100
30 101
30 103
30 104
30 105
30 106
30 109
30 110
30 111
30 112
30 114
30 115
30 116
30 117
30 118
30 119
30 120
30 121
30 122
30 123
30 124
30 126
30 128
31 32
31 33
31 34
31 37
31 38
31 39
31 40
31 42
31 43
31 46
31 47
31 49
31 52
31 54
31 55
31 56
31 57
31 59
31 60
31 61
31 65
31 66
31 67
31 68
31 69
31 71
31 72
31 73
31 74
31 75
31 76
31 78
31 79
31 80
31 81
31 85
31 86
31 87
31 88
31 89
31 91
31 92
31 93
31 94
31 96
31 97
31 98
31 99
31 100
31 101
31 103
31 104
31 105
31 106
31 107
31 109
31 110
31 111
31 112
31 114
31 115
31 116
31 117
31 118
31 119
31 120
31 121
31 122
31 123
31 124
31 126
31 128
32 34
32 37
32 38
32 39
32 40
32 42
32 43
32 47
32 52
32 54
32 55
32 61
32 65
32 68
32 69
32 71
32 72
32 73
32 74
32 75
32 76
32 78
32 79
32 80
32 87
32 89
32 91
32 92
32 96
32 97
32 98
32 99
32 101
32 103
32 104
32 105
32 107
32 109
32 110
32 111
32 112
32 114
32 115
32 116
32 117
32 118
32 120
32 121
32 123
32 126
32 128
33 35
33 37
33 38
33 40
33 42
33 43
33 46
33 47
33 54
33 56
33 59
33 61
33 66
33 67
33 69
33 71
33 72
33 73
33 76
33 77
33 79
33 80
33 81
33 85
33 86
33 87
33 89
33 91
33 93
33 96
33 97
33 100
33 101
33 103
33 105
33 106
33 111
33 114
33 115
33 116
33 117
33 118
33 119
33 121
33 124
33 128
34 37
34 38
34 39
34 40
34 42
34 47
34 52
34 54
34 55
34 56
34 59
34 60
34 61
34 65
34 66
34 67
34 68
34 69
34 71
34 72
34 73
34 74
34 75
34 76
34 78
34 79
34 80
34 85
34 86
34 87
34 88
34 89
34 91
34 92
34 96
34 97
34 98
34 99
34 101
34 103
34 104
34 105
34 106
34 107
34 109
34 110
34 111
34 112
34 114
34 115
34 116
34 117
34 118
34 119
34 120
34 121
34 123
34 126
34 128
35 37
35 40
35 42
35 43
35 47
35 48
35 59
35 65
35 68
35 70
35 72
35 73
35 77
35 80
35 81
35 85
35 86
35 87
35 93
35 96
35 97
35 105
35 106
35 111
35 117
35 118
35 119
35 121
35 122
35 124
35 128
36 51
36 57
36 58
36 62
36 63
36 95
36 102
36 108
36 113
36 127
36 129
37 38
37 39
37 40
37 42
37 43
37 47
37 52
37 54
37 55
37 56
37 59
37 60
37 61
37 65
37 66
37 67
37 68
37 69
37 71
37 72
37 73
37 74
37 75
37 76
37 77
37 78
37 79
37 80
37 81
37 82
37 85
37 86
37 87
37 88
37 89
37 91
37 92
37 93
37 96
37 97
37 98
37 99
37 100
37 101
37 103
37 104
37 105
37 106
37 107
37 109
37 110
37 111
37 112
37 114
37 115
37 116
37 117
37 118
37 119
37 120
37 121
37 122
37 123
37 124
37 125
37 126
37 128
38 39
38 40
38 42
38 47
38 52
38 54
38 55
38 59
38 60
38 61
38 65
38 66
38 67
38 68
38 69
38 71
38 72
38 73
38 74
38 75
38 76
38 78
38 79
38 80
38 81
38 85
38 86
38 87
38 88
38 89
38 91
38 92
38 96
38 97
38 98
38 99
38 101
38 103
38 104
38 105
38 106
38 107
38 109
38 110
38 111
38 112
38 114
38 115
38 116
38 117
38 118
38 119
38 120
38 121
38 123
38 124
38 126
38 128
39 40
39 42
39 47
39 52
39 54
39 55
39 59
39 60
39 61
39 65
39 66
39 67
39 68
39 69
39 71
39 72
39 73
39 74
39 75
39 76
39 78
39 79
39 80
39 85
39 86
39 87
39 88
39 89
39 91
39 92
39 96
39 97
39 98
39 99
39 101
39 103
39 104
39 105
39 106
39 107
39 109
39 110
39 111
39 112
39 114
39 115
39 116
39 117
39 118
39 119
39 120
39 121
39 123
39 126
39 128
40 42
40 43
40 44
40 46
40 47
40 48
40 52
40 54
40 55
40 56
40 59
40 60
40 61
40 65
40 66
40 67
40 68
40 69
40 71
40 72
40 73
40 74
40 75
40 76
40 77
40 78
40 79
40 80
40 81
40 85
40 86
40 87
40 88
40 89
40 91
40 92
40 93
40 96
40 97
40 98
40 99
40 100
40 101
40 103
40 104
40 105
40 106
40 107
40 109
40 110
40 111
40 112
40 114
40 115
40 116
40 117
40 118
40 119
40 120
40 121
40 122
40 123
40 124
40 126
40 128
41 45
41 49
41 57
41 63
41 64
41 83
41 94
41 108
42 43
42 44
42 47
42 52
42 54
42 55
42 56
42 59
42 60
42 61
42 65
42 66
42 67
42 68
42 69
42 71
42 72
42 73
42 74
42 75
42 76
42 77
42 78
42 79
42 80
42 81
42 85
42 86
42 87
42 88
42 89
42 91
42 92
42 93
42 96
42 97
42 98
42 99
42 101
42 103
42 104
42 105
42 106
42 107
42 109
42 110
42 111
42 112
42 114
42 115
42 116
42 117
42 118
42 119
42 120
42 121
42 122
42 123
42 124
42 126
42 128
43 46
43 47
43 48
43 52
43 54
43 55
43 56
43 59
43 61
43 65
43 66
43 67
43 68
43 69
43 71
43 72
43 73
43 76
43 77
43 79
43 80
43 81
43 85
43 86
43 87
43 89
43 91
43 92
43 93
43 96
43 97
43 98
43 99
43 100
43 101
43 103
43 105
43 106
43 107
43 109
43 111
43 112
43 114
43 115
43 117
43 118
43 119
43 121
43 123
43 124
43 128
44 47
44 72
44 80
44 87
44 91
44 97
44 101
44 103
44 105
44 111
44 118
44 121
44 122
45 49
45 50
45 57
45 63
45 64
45 73
45 90
45 91
45 94
45 95
45 108
45 127
46 47
46 59
46 66
46 67
46 68
46 79
46 80
46 81
46 85
46 86
46 87
46 89
46 93
46 96
46 97
46 100
46 101
46 103
46 105
46 106
46 111
46 115
46 119
46 121
46 122
46 124
46 128
47 48
47 52
47 54
47 55
47 56
47 59
47 60
47 61
47 65
47 66
47 67
47 68
47 69
47 71
47 72
47 73
47 74
47 75
47 76
47 77
47 78
47 79
47 80
47 81
47 85
47 86
47 87
47 88
47 89
47 91
47 92
47 93
47 96
47 97
47 98
47 99
47 100
47 101
47 103
47 104
47 105
47 106
47 107
47 109
47 110
47 111
47 112
47 114
47 115
47 116
47 117
47 118
47 119
47 120
47 121
47 122
47 123
47 124
47 126
47 128
48 56
48 59
48 77
48 80
48 86
48 93
48 97
48 106
48 119
48 121
49 51
49 57
49 58
49 62
49 63
49 64
49 71
49 83
49 94
49 95
49 108
49 113
49 114
49 127
49 129
50 63
50 64
50 90
50 94
50 95
50 108
51 57
51 58
51 62
51 63
51 95
51 102
51 108
51 113
51 127
51 129
52 54
52 55
52 60
52 61
52 65
52 66
52 67
52 68
52 69
52 71
52 72
52 73
52 74
52 75
52 76
52 78
52 79
52 80
52 86
52 87
52 88
52 89
52 91
52 92
52 96
52 97
52 98
52 99
52 101
52 103
52 104
52 105
52 106
52 107
52 109
52 110
52 111
52 112
52 114
52 115
52 116
52 117
52 118
52 119
52 120
52 121
52 123
52 126
52 128
53 84
54 55
54 56
54 59
54 60
54 61
54 65
54 66
54 67
54 68
54 69
54 71
54 72
54 73
54 74
54 75
54 76
54 78
54 79
54 80
54 81
54 85
54 86
54 87
54 88
54 89
54 91
54 92
54 93
54 96
54 97
54 98
54 99
54 101
54 103
54 104
54 105
54 106
54 107
54 109
54 110
54 111
54 112
54 114
54 115
54 116
54 117
54 118
54 119
54 120
54 121
54 122
54 123
54 124
54 126
54 128
55 60
55 61
55 65
55 66
55 67
55 68
55 69
55 71
55 72
55 73
55 74
55 75
55 76
55 78
55 79
55 80
55 86
55 87
55 88
55 89
55 91
55 92
55 96
55 97
55 98
55 99
55 101
55 103
55 104
55 105
55 106
55 107
55 109
55 110
55 111
55 112
55 114
55 115
55 116
55 117
55 118
55 120
55 121
55 123
55 126
55 128
56 59
56 61
56 67
56 68
56 69
56 72
56 73
56 76
56 78
56 80
56 81
56 85
56 86
56 87
56 89
56 91
56 93
56 97
56 101
56 103
56 105
56 106
56 111
56 112
56 115
56 116
56 117
56 118
56 119
56 121
56 124
56 128
57 58
57 62
57 63
57 64
57 69
57 71
57 83
57 90
57 91
57 94
57 95
57 102
57 108
57 114
57 127
58 62
58 63
58 94
58 95
58 102
58 108
58 113
58 127
58 129
59 61
59 65
59 66
59 67
59 68
59 69
59 71
59 72
59 73
59 76
59 77
59 78
59 79
59 80
59 81
59 85
59 86
59 87
59 89
59 91
59 92
59 93
59 96
59 97
59 99
59 100
59 101
59 103
59 105
59 106
59 111
59 112
59 114
59 115
59 116
59 117
59 118
59 119
59 121
59 122
59 124
59 128
60 61
60 65
60 68
60 69
60 71
60 72
60 73
60 74
60 75
60 76
60 78
60 79
60 87
60 88
60 89
60 91
60 92
60 96
60 99
60 101
60 103
60 104
60 105
60 109
60 110
60 112
60 114
60 115
60 116
60 117
60 118
60 120
60 121
60 123
60 126
60 128
61 65
61 66
61 67
61 68
61 69
61 71
61 72
61 73
61 74
61 75
61 76
61 78
61 79
61 80
61 85
61 86
61 87
61 88
61 89
61 91
61 92
61 93
61 96
61 97
61 98
61 99
61 101
61 103
61 104
61 105
61 106
61 107
61 109
61 110
61 111
61 112
61 114
61 115
61 116
61 117
61 118
61 119
61 120
61 121
61 122
61 123
61 126
61 128
62 63
62 95
62 102
62 108
62 113
62 127
62 129
63 64
63 83
63 90
63 94
63 95
63 108
63 127
64 69
64 73
64 83
64 90
64 91
64 94
64 95
64 108
64 114
64 127
65 66
65 67
65 68
65 69
65 71
65 72
65 73
65 74
65 75
65 76
65 78
65 79
65 80
65 81
65 85
65 86
65 87
65 88
65 89
65 91
65 92
65 93
65 96
65 97
65 98
65 99
65 101
65 103
65 104
65 105
65 106
65 107
65 109
65 110
65 111
65 112
65 114
65 115
65 116
65 117
65 118
65 119
65 120
65 121
65 122
65 123
65 126
65 128
66 67
66 68
66 69
66 71
66 72
66 73
66 74
66 75
66 76
66 78
66 79
66 80
66 81
66 85
66 86
66 87
66 88
66 89
66 91
66 92
66 93
66 96
66 97
66 99
66 100
66 101
66 103
66 104
66 105
66 106
66 109
66 110
66 111
66 112
66 114
66 115
66 116
66 117
66 118
66 119
66 120
66 121
66 122
66 123
66 124
66 126
66 128
67 68
67 69
67 71
67 72
67 73
67 75
67 76
67 78
67 79
67 80
67 81
67 85
67 86
67 87
67 88
67 89
67 91
67 92
67 93
67 96
67 97
67 99
67 100
67 101
67 103
67 104
67 105
67 106
67 107
67 109
67 110
67 111
67 114
67 115
67 116
67 117
67 118
67 119
67 120
67 121
67 122
67 123
67 124
67 126
67 128
68 69
68 71
68 72
68 73
68 74
68 75
68 76
68 77
68 78
68 79
68 80
68 85
68 86
68 87
68 88
68 89
68 91
68 92
68 96
68 97
68 98
68 99
68 101
68 103
68 104
68 105
68 106
68 107
68 109
68 110
68 111
68 112
68 114
68 115
68 116
68 117
68 118
68 119
68 120
68 121
68 122
68 123
68 126
68 128
69 71
69 72
69 73
69 74
69 75
69 76
69 78
69 79
69 80
69 81
69 82
69 85
69 86
69 87
69 88
69 89
69 91
69 92
69 93
69 96
69 97
69 98
69 99
69 100
69 101
69 103
69 104
69 105
69 106
69 107
69 109
69 110
69 111
69 112
69 114
69 115
69 116
69 117
69 118
69 119
69 120
69 121
69 122
69 123
69 124
69 125
69 126
69 128
70 119
71 72
71 73
71 74
71 75
71 76
71 78
71 79
71 80
71 81
71 82
71 85
71 86
71 87
71 88
71 89
71 91
71 92
71 93
71 96
71 97
71 98
71 99
71 101
71 103
71 104
71 105
71 106
71 107
71 109
71 110
71 111
71 112
71 114
71 115
71 116
71 117
71 118
71 119
71 120
71 121
71 122
71 123
71 124
71 125
71 126
71 128
72 73
72 74
72 75
72 76
72 77
72 78
72 79
72 80
72 81
72 82
72 85
72 86
72 87
72 88
72 89
72 91
72 92
72 93
72 96
72 97
72 98
72 99
72 101
72 103
72 104
72 105
72 106
72 107
72 109
72 110
72 111
72 112
72 114
72 115
72 116
72 117
72 118
72 119
72 120
72 121
72 122
72 123
72 124
72 125
72 126
72 128
73 74
73 75
73 76
73 77
73 78
73 79
73 80
73 85
73 86
73 87
73 88
73 89
73 91
73 92
73 93
73 94
73 96
73 97
73 98
73 99
73 101
73 103
73 104
73 105
73 106
73 107
73 109
73 110
73 111
73 112
73 114
73 115
73 116
73 117
73 118
73 119
73 120
73 121
73 122
73 123
73 126
73 128
74 75
74 76
74 78
74 79
74 80
74 87
74 89
74 91
74 92
74 96
74 97
74 98
74 99
74 101
74 103
74 104
74 105
74 107
74 109
74 110
74 111
74 112
74 114
74 115
74 116
74 117
74 118
74 120
74 121
74 123
74 126
74 128
75 76
75 78
75 79
75 80
75 87
75 88
75 89
75 91
75 92
75 96
75 97
75 98
75 99
75 101
75 103
75 104
75 105
75 106
75 107
75 109
75 110
75 111
75 112
75 114
75 115
75 116
75 117
75 118
75 119
75 120
75 121
75 123
75 126
75 128
76 78
76 79
76 80
76 82
76 86
76 87
76 88
76 89
76 91
76 92
76 93
76 96
76 97
76 98
76 99
76 101
76 103
76 104
76 105
76 106
76 107
76 109
76 110
76 111
76 112
76 114
76 115
76 116
76 117
76 118
76 119
76 120
76 121
76 123
76 125
76 126
76 128
77 80
77 81
77 85
77 86
77 87
77 93
77 96
77 97
77 105
77 106
77 111
77 118
77 119
77 121
77 122
77 124
77 128
78 79
78 80
78 85
78 87
78 88
78 89
78 91
78 92
78 96
78 97
78 98
78 99
78 101
78 103
78 104
78 105
78 106
78 107
78 109
78 110
78 111
78 112
78 114
78 115
78 116
78 117
78 118
78 119
78 120
78 121
78 123
78 126
78 128
79 80
79 81
79 82
79 85
79 86
79 87
79 88
79 89
79 91
79 92
79 93
79 94
79 96
79 97
79 98
79 99
79 100
79 101
79 103
79 104
79 105
79 107
79 109
79 110
79 111
79 112
79 114
79 115
79 116
79 117
79 118
79 119
79 120
79 121
79 122
79 123
79 124
79 125
79 126
79 127
79 128
80 81
80 85
80 86
80 87
80 88
80 89
80 91
80 92
80 93
80 96
80 97
80 98
80 99
80 100
80 101
80 103
80 104
80 105
80 106
80 107
80 109
80 110
80 111
80 112
80 114
80 115
80 116
80 117
80 118
80 119
80 120
80 121
80 122
80 123
80 124
80 126
80 128
81 85
81 86
81 87
81 89
81 91
81 93
81 96
81 97
81 99
81 100
81 101
81 103
81 105
81 106
81 111
81 114
81 115
81 116
81 118
81 119
81 121
81 124
81 128
82 89
82 91
82 101
82 103
82 114
82 117
82 125
83 94
83 95
83 112
83 113
83 114
85 86
85 87
85 88
85 89
85 91
85 93
85 96
85 97
85 99
85 100
85 101
85 103
85 105
85 106
85 107
85 111
85 112
85 114
85 115
85 116
85 117
85 118
85 119
85 121
85 122
85 124
85 128
86 87
86 89
86 91
86 92
86 93
86 96
86 97
86 99
86 100
86 101
86 103
86 105
86 106
86 109
86 111
86 112
86 114
86 115
86 116
86 117
86 118
86 119
86 120
86 121
86 122
86 123
86 124
86 126
86 128
87 88
87 89
87 91
87 92
87 93
87 96
87 97
87 98
87 99
87 100
87 101
87 103
87 104
87 105
87 106
87 107
87 109
87 110
87 111
87 112
87 114
87 115
87 116
87 117
87 118
87 119
87 120
87 121
87 122
87 123
87 124
87 126
87 128
88 89
88 91
88 92
88 96
88 97
88 99
88 101
88 103
88 104
88 109
88 110
88 111
88 112
88 114
88 115
88 116
88 117
88 118
88 120
88 121
88 123
88 126
88 128
89 91
89 92
89 93
89 96
89 97
89 98
89 99
89 100
89 101
89 103
89 104
89 105
89 106
89 107
89 109
89 110
89 111
89 112
89 114
89 115
89 116
89 117
89 118
89 119
89 120
89 121
89 122
89 123
89 124
89 125
89 126
89 128
90 94
90 95
90 108
91 92
91 93
91 94
91 96
91 97
91 98
91 99
91 100
91 101
91 103
91 104
91 105
91 106
91 107
91 109
91 110
91 111
91 112
91 114
91 115
91 116
91 117
91 118
91 119
91 120
91 121
91 122
91 123
91 124
91 125
91 126
91 128
92 93
92 96
92 97
92 98
92 99
92 101
92 103
92 104
92 105
92 106
92 107
92 109
92 110
92 111
92 112
92 114
92 115
92 116
92 117
92 118
92 120
92 121
92 123
92 126
92 128
93 96
93 97
93 99
93 100
93 101
93 103
93 105
93 106
93 111
93 112
93 114
93 115
93 117
93 118
93 119
93 121
93 122
93 123
93 124
93 128
94 95
94 102
94 108
94 113
94 114
94 127
95 108
95 127
96 97
96 98
96 99
96 101
96 103
96 104
96 105
96 106
96 107
96 109
96 110
96 111
96 112
96 114
96 115
96 116
96 117
96 118
96 119
96 120
96 121
96 122
96 123
96 124
96 126
96 128
97 98
97 99
97 100
97 101
97 103
97 104
97 105
97 106
97 107
97 109
97 110
97 111
97 112
97 114
97 115
97 116
97 117
97 118
97 119
97 120
97 121
97 122
97 123
97 124
97 126
97 128
98 99
98 101
98 103
98 104
98 105
98 107
98 109
98 110
98 111
98 112
98 114
98 115
98 116
98 117
98 118
98 120
98 121
98 123
98 126
98 128
99 101
99 103
99 104
99 105
99 106
99 107
99 109
99 110
99 111
99 112
99 114
99 115
99 116
99 117
99 118
99 119
99 120
99 121
99 122
99 123
99 124
99 126
99 128
100 101
100 103
100 105
100 106
100 111
100 115
100 119
100 121
100 124
100 128
101 103
101 104
101 105
101 106
101 107
101 109
101 110
101 111
101 112
101 114
101 115
101 116
101 117
101 118
101 119
101 120
101 121
101 122
101 123
101 124
101 125
101 126
101 128
102 113
102 127
102 129
103 104
103 105
103 106
103 107
103 109
103 110
103 111
103 112
103 114
103 115
103 116
103 117
103 118
103 119
103 120
103 121
103 122
103 123
103 124
103 125
103 126
103 128
104 105
104 107
104 109
104 110
104 111
104 112
104 114
104 115
104 116
104 117
104 118
104 119
104 120
104 121
104 123
104 126
104 128
105 106
105 107
105 109
105 110
105 111
105 112
105 114
105 115
105 116
105 117
105 118
105 119
105 120
105 121
105 122
105 123
105 124
105 126
105 128
106 109
106 111
106 112
106 114
106 115
106 116
106 117
106 118
106 119
106 120
106 121
106 122
106 123
106 124
106 126
106 128
107 109
107 110
107 111
107 112
107 114
107 115
107 116
107 117
107 118
107 120
107 121
107 123
107 126
107 128
108 127
109 110
109 111
109 112
109 114
109 115
109 116
109 117
109 118
109 120
109 121
109 123
109 126
109 128
110 111
110 112
110 114
110 115
110 116
110 117
110 118
110 120
110 121
110 123
110 126
110 128
111 112
111 114
111 115
111 116
111 117
111 118
111 119
111 120
111 121
111 122
111 123
111 124
111 126
111 128
112 114
112 115
112 116
112 117
112 118
112 119
112 120
112 121
112 122
112 123
112 126
112 128
113 127
113 129
114 115
114 116
114 117
114 118
114 119
114 120
114 121
114 122
114 123
114 124
114 125
114 126
114 128
115 116
115 117
115 118
115 119
115 120
115 121
115 122
115 123
115 124
115 126
115 128
116 117
116 118
116 120
116 121
116 123
116 124
116 126
116 128
117 118
117 119
117 120
117 121
117 122
117 123
117 125
117 126
117 128
118 119
118 120
118 121
118 122
118 123
118 124
118 126
118 128
119 120
119 121
119 122
119 123
119 124
119 126
119 128
120 121
120 123
120 126
120 128
121 122
121 123
121 124
121 126
121 128
122 128
123 126
123 128
124 128
126 128
127 129
